
 102   30
  10   10   10   10   10   10   10   10   10   10   10   10   10   10   10   10   10   10   10   10   10   10   10   10   10   10   10   10   10   10

   0   0   0   0   0   0   0   0   0   0   0   0   0   0   0   0   0   0   0   0   0   0   0   0   0   0   0   0   0   0   0  20 2 3 4 5 6 7 9 11 13 15 16 17 18 19 21 23 24 25 27 31 
   5   0   1   0   1   0   0   0   0   0   0   0   0   0   0   1   0   4   0   0   0   0   0   0   0   0   0   0   0   0   0  19 67 58 55 54 48 46 44 42 37 36 34 33 32 30 29 28 22 14 12 
   5   0   0   0   0   0   0   0   0   0   0   0   0   3   0   0   0   0   0   0   0   1   0   0   0   0   0   0   0   0   0  14 100 67 61 57 52 49 45 41 40 39 36 35 20 10 
   1   0   0   0   0   0   0   0   0   0   0   0   0   0   0   8   0   0   0   0   0   0   0   0   0   1   0   0   2   0   0  11 101 67 66 55 53 46 45 42 34 28 8 
   4   0   0   0   0   0   1   0   0   0   0   0   0   0   0   0   0   0   0   0   0   0   0   0   0   0   0   0   0   0   3  15 73 67 61 57 52 50 49 46 41 40 39 33 30 29 20 
   7   0   0   0   5   4   0   0   0   0   0   0   0   0   0   0   0   0   0   0   1   0   0   1   0   0   0   0   6   0   0  14 67 66 61 59 57 56 45 43 41 39 37 26 22 20 
   3   0   0   0   0   3  10   0   0   0   0   0   1   0   0   0   0   0   1   0   0   0   0   0   0   0   0   0   0   0   0  22 101 100 99 98 95 74 67 66 65 64 61 59 56 54 52 51 49 48 45 42 41 33 
   7   0   0   0   0   0   0   0   0   0   0   0   0   0   0   0   0   0   0   0   0   0   0   0   0   0   0   0   8   0   0  19 99 98 95 92 75 74 70 65 60 59 56 54 52 49 48 47 39 38 35 
   2   1   0   0   0   0   0   0   0   0   0   0   0   0   0   0   0  10   0   0   7   0   2   0   0   0   0   1   0   0   0  17 101 99 97 96 95 75 74 72 69 67 66 61 53 47 45 40 28 
   1   5   0   0   0   0   0   0   0   2   0   0   0   0   0   0   0   0   6   0   0   0   0   0   0   0   0   0   0   0   0  19 96 95 90 89 73 71 65 62 60 59 58 55 54 53 51 48 47 37 33 
   9   0   4   0   4   0   0   3   0   0   0   0   0   0   0   0   0   0   0   0   0   0   0   7   2   0   1   0   0   0   0  20 101 98 97 90 75 74 72 64 63 62 61 60 59 55 51 49 47 43 40 38 
   7   0   0   0   5   0   4   0   0   0   0   1   0   0   0   0   0   0   4   0   0   9   0   0   5   0   0   0   8   0   0  20 100 99 97 94 88 74 73 72 70 65 62 61 60 56 53 52 51 50 45 39 
   7   0   0   0   8   0   0   5   0   0   1   0   0   0   0   5   2   0   5   0   0   0   0   0   0   0   0   0   0   0   0  16 101 98 95 90 65 64 59 57 56 54 53 51 49 48 42 33 
  10   0   0   0   6   0   0   0   0   0   0   0   0   0   0   0   0   0   6   0   0   0   0   0   0   0   0   0   0   0   0  16 98 97 95 94 88 74 73 70 61 56 53 52 51 47 45 39 
   5   0   0   0   0   0   0   0   2   0   4   0   0   0   0   8   0   0   0   0   0   0   0   0   0   0   0   6   0   0   0  24 98 97 96 95 92 91 90 83 75 74 73 72 71 70 69 66 65 64 63 62 59 56 51 47 
   9   2   0   0   0   7   0   0   0   0   0   0   0   0   0   0   0   0   4   0   0   0   0   0   0   0   0   0   0   1   4  22 100 99 98 97 96 95 92 91 90 85 74 73 72 69 68 66 65 63 61 60 59 40 
   8   0   5   0   0   0   0   0   8   0   0   0   0   0   1   7   0   0   0   0   0   0   0   0   7   5   0   0   0   0   0  15 100 95 94 73 72 70 69 66 65 56 53 52 45 42 41 
   8   0   7   0   0   0   0   0   0   0  10   0   0   6   0   0   0   0   0   0   0   0   0   0   0   0   0   0   0   0   0  19 101 100 98 95 91 90 74 73 70 69 68 66 65 60 59 58 47 43 41 
   7   0   0   0   0   0   0  10   0   0   0   6   0   0  10   0   0   0   0   0   6   0   0   0   4   0   0   0   9   0   0  10 98 94 93 73 64 53 51 49 45 26 
   6   0   0   0   0   0   0   0   0   0   0   0   0   0   5   0   0   0   0   0   0   0   0   0   0   0   0   0   0   0   5  23 99 98 97 96 94 93 92 91 90 88 87 75 74 71 69 64 63 60 58 54 53 51 47 
   8   0   0   0   0   0   0   0   0   0   0   0   0   0   0   0   0   0   0   0   0   0   0   0   9   0   0   0   0   0   0  13 100 99 95 70 66 63 62 61 59 51 48 43 39 
   7   0   0   0   0   0   0   0   0   0   0   0   0  10   0   0   0   7   0   0   0   0   0   0   0   0   0   0   0   0   0  21 100 97 96 95 93 90 89 88 84 83 74 73 72 71 70 69 65 64 63 62 52 
   6   0   0   0   0   0   0   0   4   5   6   0   0   0   0   0   0   0   0   1   0   0   0   0   0   0   0   0   0   0   0  16 101 96 95 92 91 90 88 80 73 69 63 61 57 55 53 40 
   7   0   0   0   0   0   0   0   0   0   3   0   0   0   0   0   0   0   0   0   0   0   0   0   5   0   0   0   0   0   0  20 97 95 94 93 92 91 88 86 83 82 73 70 69 67 66 65 64 63 62 56 
  10   0   0   0   0   0   0   0   0   0   5   0   0   0   0   0   0   0   0   0   0   0   0   0   0   0   0   0   0   0   0  14 94 92 90 85 83 74 72 71 70 67 66 65 63 52 
   5   0   0   0   9   0   0   0   0   0   0   0   0   0   0   0   0   0   0   0   0   0   0   0   0   4   0   0   0   0   0  14 101 99 96 95 91 90 88 85 82 78 70 69 63 54 
   8   0   0   0   0   0   0   0   0   0   0   0   0   0   0   0   0   0   0   0   0   0   0   0   0   0   0   0   0   0   0  14 98 95 92 90 89 88 85 83 81 72 71 68 67 48 
  10   9   0   2   0   0   0   7   0   0   0   0   0   0   0   0   0   0   0   0   0   0   0   0   0   0   5   0   0   0   0  12 98 91 86 85 83 73 71 70 68 60 59 41 
  10   0   7   0   0   0   0   0   0   0   0   0   0   0   0   6   4   0   0   5   0   0   0   0   0   0   0   0   7   0   0  12 98 95 94 91 89 74 70 68 65 64 63 47 
   3   0   0   0   3   0   0   0   0   8   0   0   0   0   9   0   0   0   0   0   0   0   0   0   0   0   0   0   0   0   6  13 95 93 92 91 86 85 83 78 69 66 63 62 59 
   3   0   0   0   0   0   0   0   0   0   0   0   0   5   0   0   0   0   0   0   0   0   0   0   0   0   0   7   0   0   0  13 99 95 92 91 89 82 81 71 70 69 67 66 55 
   2   0   0   0   0   0   0   0   6   0   0   9   0   0   0   0   0   4   0   0   0   0   0   0   0   0   0   0   0   0   0  12 94 90 89 83 82 73 72 70 69 65 63 51 
   1   0   0   0   0   0   0   0   0   0   0   0   0   0   0   0   0   0   0   0   0   0   0   0   0   0   0   0   0   0   0  16 97 93 92 91 87 86 85 84 82 80 79 78 75 70 68 63 
   1   0   0   8   0  10   0   0   0   0   0   0   0   0   0   0   0   0   0   5   8   0   2   0   0   0   0   0   0   0   0  13 92 90 88 87 84 83 82 81 78 71 69 68 64 
   3   8   0   3   0   0   0   0   0   0   0   0   0   0   0   0   0   0   0   0   0   4   0   4   0   0   0   0   0   0   0  11 97 86 84 83 82 78 73 71 69 63 51 
   9   0   0   0   0   0   0   8   0   0   0   0   0   0   0   0   3   0   0   7   0   0   9   7   0   0   0   0   0   0   4  10 95 94 88 86 83 82 78 72 69 56 
   6   0   7   0   0   0   0   0   0   0   0   0   0   0   0   0   0   0   0   0   0   0   0   0   0   0   0   4   0   0   0  11 101 93 88 84 83 82 81 80 78 77 64 
  10   0   0   0   9   5   0   0   5   0   0   0   0   7   0   0   0   0   0   0   0   0   4  10   0   7   0   7   0   0   0  11 100 93 91 87 86 82 80 79 78 69 68 
   4   0   0   0   0   0   0   0   0  10   7   0   0   0   0   0   0   0   0   0   0   0   0   4   0   0   0   0   0   0   0  10 96 93 90 89 87 83 81 69 68 64 
   1   0   0   0   0   0   0   0   0   0  10   8   0   0   0   0   0   0   0   0   0   5   0   0   0   0   0   0   0   0   0   8 94 87 86 83 78 76 70 56 
   7   0   0   0   0   0   0   9   0   0   0   0   0   0   0   0   0   0   0   0   0   0   0   0   0   6   0   0   0   0   0  10 93 88 87 84 81 80 79 78 77 76 
   7   4   7   0   0   6   0   0   0   5   0   0   0   4   0   0   0   0   0   0   0   0   0   0   0   0   0   0   0   0   0  10 97 96 93 87 85 83 81 79 78 76 
   7   0   0   0   0   0   0   0   0   0   0   0   0   0   0   0   0   0   0   6   0   0   0   0   0   0   0   0   0   0   0   9 92 89 84 83 82 80 78 76 71 
   2   0   0   0   5   0   0   0   0   6   0   0   0   0   0   0   4   0   0  10   0   0   7   0   0   0   0   0   0   4   0   8 90 89 85 84 83 80 69 68 
   4   0   0   0   0   0   6   0   0   0   0   0   8   0   0   0   0   0   0   0   0   0   0   0   0   6   0   0   0   0   0   7 92 90 83 78 77 71 63 
   2   0   0   8   0   0   0   0   5   0   0   0   0   0   0   0   0   0   0   0   4   0   0   0   0   0   0   0   0   0   0   8 96 89 84 81 80 78 76 70 
  10   7   0   0   0   0   0   0   7   0   8   0   0   1   0   0   0   0   0   0   8   0   0   0   0   0   0   0   0   0   7   7 86 85 84 82 80 79 77 
   4   9   5   0   0   0   0   0   0   6   0   0   0   0   4   0   0   0   0   8   0   5   0   0   0   0   9   0   0   0   0   6 94 86 82 80 77 69 
  10   0   0   0   0   0   0   0   0   0   0   0   0   0   0   0   0   0  10   0   0   0   0   0   0   0   0   0   4   0   0   6 87 81 80 79 76 68 
   7   7   0   0   0   0   0   0   0   0   0   0   0   0   0   0   0   0   5   0   0   0   0   0   0   0   0   0   0   0   0   6 90 84 83 81 79 69 
   4   0   0   0   0   0   0   0  10   0   0   0   0   0   0   4   0   0   0  10   3   0   0   0   0   0   0   0   0   0   0   6 85 81 80 79 77 76 
   3   0   3   0   0   0   0   0   0   0   0   0   0   0   0   0   0   4   0   0   7   0   0   0   0   0   0   0   6   0   0   6 91 86 82 79 78 76 
   7   0   0   0   0   0   8   0   0   0   3   0   0   0   0   0   0   0   3   0   0   0   0   0   0   0   0   0   0   0   8   5 84 82 78 76 68 
   7   0   6   0   0   0   0   0   0   0   0   0   6   0   5   0   0   0   0   0   0   0   0   0   0   0   0   0   5   0   0   5 86 84 83 79 72 
   2   0   0   0   0   8   0   0   7   0   8   0   7   0   0   0   0   0   0   0   0   0   0   0   0   7   0   0   0   0   0   5 85 83 78 76 68 
   4   0   0   0   0   5   6   0   0   8   0   0   0   0   0   0   0   0   3   0   0   0   0   0  10   0   0   0   0   0   0   5 89 84 81 79 77 
   7   0   0   0   0   0   0   0   0   0   0   0   0   0   0   0   0   0   0   0   0   0   0   0   0  10   0   0   0   0   0   5 93 83 78 77 76 
   7   0   9   0   7   0   0   0   0   0   0   0   0   0   0   0   0   1   0   0   0   8   0   9   0   0   0   0   0   0   7   4 81 78 77 72 
   9   0   0   0   0   0   0   0   0   0   0   0   7   4   0   0   7   5   9   7   0   8   0   0   0   0   0   0   5   0   0   3 88 82 76 
   7   6   0   0   0   0   0   6   0   0   0   0   0   0   0   3   0   3   0   0   8   0  10   0   0   0   0   0   0   0   0   3 84 80 76 
   6   8   0   0   0   0   0   0   0   5   0   0   0   0   0   0   0   0   0   0   9   0   0   0   0   0   0   9   0   0   0   3 87 82 76 
   4   0  10   4   0   0   0   4   0   0   0   0   0   0   0   0   0   0   0   0   0   0   0   6   0   0   0   0   0   0   0   2 80 68 
  10   0   0   0   0   0   0   2   0   0   4   7   0   9   0   0   0   0   8   0   0   0   0   0   0   0   6   0   6  10   0   2 81 76 
   1   0   0   6   0   0   0   0   0   0   0   0   0   0   0   0   0   0   0   0   0   0   0   0   0   0   8   9   0   0   0   2 85 76 
   7   0   0   0   0   0   0   0   0   0   0   0   0   0   0   0   0   0   0   0   0   0   0   0   0   0   0   0   5   0   0   2 87 78 
   9   0   0   0   0   6   0   0   0   0   0   0   0   0   0   0   0   0   0   0   0   8   7   0   0   0   0   0   0   0   0   2 77 76 
   3   0   0   0   0   0   0   0   0   5   0   0   0   5   0   8   0   0   0   8   0   0   0   0   0   0   0   0   0   0   6   2 79 78 
   2   0   0   0   0   0   0   0   0   0   0   0   0   0   0   0   0   0   0   0   0   6   0   0   0   0   0   0   0   0   0   1 77 
   2   0   0   6   0   0   0   0   8   0   0   0   0   0   0   0   0   0   0   0   0   0   0   0   0   0   4   0  10   0   0   1 76 
   2   0   0   7   0   0   0   0   0   0   0   0   0   0   0   5  10   0   0   0  10   0   0   2   4   8   0   0   0   0   0   1 77 
  10   0   0   0   8   0   0   4   0   0   0   0   0   0   0   0   0   0   0   0   0   0   5   0   0   0   0   4   0   0   0   1 79 
   2   0   0  10   0   0   4   0   0   7   6   0   0   0   0   0   0   0   0   5   0   0   0   0   0   0   4   0   0   6   0   1 80 
   2   0   0   0   0   5   0   0   0   0   0   0   0   0   0   7   0   0   0   0   0   0   0   0   0   0   0   0   0   7   0   1 77 
   8   0   0   0   0   9   0   0   0   0   0   0   0   0   0   0  10   0   0   0   0   0   0   0   5   0   6   0   6   0   0   1 82 
   3   0   0   0   5   0   0   0   0   0   0   6   8   0   0   0   0   0   0   0   0   0   0   0   0   0   0   0   0   0   0   1 77 
   9   0   0   0   0   0   0   0   0   0   0   0   0   8   0   0   0   0   0   0   4   0   0   0   0   0   7   0   6   0   6   1 102
   6   0   0   0   0   0   0   0   0   0   0   0   0   0   0   0   0   0   0   0   0   0   4   0   0   0   5   0   0   0   0   1 102
   7   0   0   0   0   0   0   0   3   0   0   0   0   0   0   0   0   9   0   0   0   0   0   0   0   0   0   7   0   0   0   1 102
   6   0   0   4   0   0   8   8   0   0   0   0   0   0   0   0   0   0   0   4   0   0   0   6   0   0   9   0   0   0   0   1 102
  10   0   0   0  10   0   0   0   0   0   0   4   4   0   0   0   0   0   0   0   0   0   0   0   0   0   0   0   0   0   0   1 102
   1   0   0   0   7   0   0   0   0   0   0   0   0   0   0   0   7   6   0   0   0   0   0   0   0   0   3   0   7   0   0   1 102
   5   0   9   0   0   0   0   0   0   0   9   4   0   0   0   0   0   0   0   3   0   0   0   0   0   5   7   0   0   0   7   1 102
   8   0   0   8   0   0   0   0   0   0   0   0   9  10   5   0   0   0   0   0   0   0   7   0   0   0   0   0   0   0  10   1 102
   3   0   0   0   0   0   6   0   0   0   0   6   0   0   0   0   0   0   0   0   5   0   0   0   5   0   0   0   0   0   0   1 102
   2   6   0   0   0   5   0   0   0   0   0   0   0   0   0   0   0   0   0   0   0   0   0   6   0   0   0   0   4   0   0   1 102
   8   0   0   0   5   0   0   0   0   0   0   0   0   0   0   0   0   8   0   0   0   0   0   0   0   0   0   0   0   0   0   1 102
   3   0   0   0   0   0   0   0   0   0   0   0   0   0   0   0   0   0   0   0   0   0   9   0   0   0   0   0   0   6   0   1 102
   2   0   0   0   0   0   7   0   0   0   0   0   0   0   9   0   0   0   0   0   0   0   0   0   0   6   0   0   0   0   0   1 102
   1   0   0   0   0   0   0   0   0   0   0   0   5   0   0   7   8   0   0   0   0   0   0   0   0   0   0   0   4   0   0   1 102
   4   6   3   0   6   0   0   0   0   4   0   0   0   0   8   9   0   0   0   0   0   0   0   5   0   0   0   0   0   0   0   1 102
   5   0   0   0   0   0   0   0   0   0   0   7   0   0   0   3   0   3   0   0   0   0   0   0   8   0   0   0   0   0   0   1 102
   7   0   0   0   0   0   0   0   0   0   0   0   0   0   0   0   0   0   0   0   0   0   0   0   0   0   0   0   0   8   0   1 102
   3   0   0   0   0   0   0   0   0   0   0   0   0   0   0   8   0   0   9   0   0   0   6   0   8   0   8   0   0   0   0   1 102
   7   0   0   0   0   0   0   0   4   0   0   0   0   0   4   0   0   0   9   0   0   0   0   0   0   0   6   0   0   0   7   1 102
   4   0   0   0   0   0   0   0   0   0   0   0   0   0   0   0   0  10   0   0   0   0   0   0   0   0   9   0   0   0   0   1 102
   3   0   0   0   5   5   0   0   0   0   0   0   5   0   0   0   0  10   4   0   0   0   0   0   0   0   5   0   0   0   4   1 102
   5   6   0   0   0   0   0   0   0   0   0   0   0   0   0   0   0   0   0   0   0   0   0   0   0   6   0   0   0   0   0   1 102
   8   0   7   0   0   0   7   0   0   7   0   8   0   0   0   7   8   0   0   0   7   0   0  10   0   0   0   0   0   0   0   1 102
   6   0   0   0   0   0   0   0   9   0   0   0   0   0   0   0   0   0   0   0   3   0   0   7   0   7   0   0   6   0   0   1 102
   5   0   0   0   0   6   5   0   0   0   0   0   0   0   0   0   3   0   0   5   0   0   0   0   0   0   0   0   0   0   0   1 102
   3   0   0   0   0   0   0   0   0   0   0   0   0   0   0   0   0   0  10   0   0   0   0   0   0   0   0   0   0   0   0   1 102
   0   0   0   0   0   0   0   0   0   0   0   0   0   0   0   0   0   0   0   0   0   0   0   0   0   0   0   0   0   0   0   0 
